AME : levi30_16
COMMENT : 30: 36x20 -city problem (levikoppenhol)
TYPE : TSP
DIMENSION : 30
EDGE_WEIGHT_TYPE : EUC_2D
NODE_COORD_SECTION
1 7 29
2 12 3
3 12 12
4 17 12
5 15 3
6 1 24
7 17 26
8 20 20
9 2 5
10 5 0
11 10 5
12 19 3
13 4 10
14 6 33
15 2 22
16 17 36
17 9 25
18 18 1
19 3 0
20 11 19
21 16 4
22 6 17
23 19 3
24 4 32
25 10 10
26 18 0
27 5 33
28 13 28
29 15 22
30 3 0
EOF